p cnf 68 180
-1 -41 0
-1 -42 0
41 -41 0
42 -42 0
-21 -43 0
-21 -44 0
43 -43 0
44 -44 0
2 -41 0
2 -42 0
41 -41 0
42 -42 0
22 -43 0
22 -44 0
43 -43 0
44 -44 0
3 -41 0
3 -42 0
41 -41 0
42 -42 0
23 -43 0
23 -44 0
43 -43 0
44 -44 0
4 -41 0
4 -42 0
41 -41 0
42 -42 0
24 -43 0
24 -44 0
43 -43 0
44 -44 0
-5 -41 0
-5 -42 0
41 -41 0
42 -42 0
-25 -43 0
-25 -44 0
43 -43 0
44 -44 0
6 -41 0
6 -42 0
41 -41 0
42 -42 0
26 -43 0
26 -44 0
43 -43 0
44 -44 0
7 -45 -41 0
-7 45 -41 0
7 45 -42 0
-7 -45 -42 0
27 -45 -43 0
-27 45 -43 0
27 45 -44 0
-27 -45 -44 0
8 -46 -41 0
-8 46 -41 0
8 46 -42 0
-8 -46 -42 0
28 -46 -43 0
-28 46 -43 0
28 46 -44 0
-28 -46 -44 0
9 -41 0
9 -42 0
41 -41 0
42 -42 0
29 -43 0
29 -44 0
43 -43 0
44 -44 0
10 -41 0
10 -42 0
41 -41 0
42 -42 0
30 -43 0
30 -44 0
43 -43 0
44 -44 0
11 -47 -41 0
-11 47 -41 0
11 47 -42 0
-11 -47 -42 0
31 -47 -43 0
-31 47 -43 0
31 47 -44 0
-31 -47 -44 0
12 -41 0
12 -42 0
41 -41 0
42 -42 0
32 -43 0
32 -44 0
43 -43 0
44 -44 0
13 -48 -41 0
-13 48 -41 0
13 48 -42 0
-13 -48 -42 0
33 -48 -43 0
-33 48 -43 0
33 48 -44 0
-33 -48 -44 0
14 -41 0
14 -42 0
41 -41 0
42 -42 0
34 -43 0
34 -44 0
43 -43 0
44 -44 0
15 -49 -41 0
-15 49 -41 0
15 49 -42 0
-15 -49 -42 0
35 -49 -43 0
-35 49 -43 0
35 49 -44 0
-35 -49 -44 0
16 -41 0
16 -42 0
41 -41 0
42 -42 0
36 -43 0
36 -44 0
43 -43 0
44 -44 0
17 -41 0
17 -42 0
41 -41 0
42 -42 0
37 -43 0
37 -44 0
43 -43 0
44 -44 0
-18 -41 0
-18 -42 0
41 -41 0
42 -42 0
-38 -43 0
-38 -44 0
43 -43 0
44 -44 0
19 -50 -41 0
-19 50 -41 0
19 50 -42 0
-19 -50 -42 0
39 -50 -43 0
-39 50 -43 0
39 50 -44 0
-39 -50 -44 0
20 -41 0
20 -42 0
41 -41 0
42 -42 0
40 -43 0
40 -44 0
43 -43 0
44 -44 0
-65 41 0
65 -41 0
-66 42 0
65 -42 0
-65 -41 0
-66 -42 0
-67 41 65 0
67 -41 0
67 -65 0
-68 42 66 0
68 -42 0
68 -66 0
-67 -43 0
-68 -44 0
67 0
68 0
-41 44 0
-42 0
-43 0
-44 41 0
